(set-logic ALL)
(set-option :produce-models true)
(declare-sort BoundSet 0)
(declare-sort UnboundSet 0)
(declare-fun IsThoughtToBeFlat (BoundSet) Bool)
(declare-fun IsFlat (BoundSet) Bool)
(assert (not (=> (and (exists ((b BoundSet)) (exists ((c BoundSet)) (and (IsThoughtToBeFlat b) (IsFlat c)))) (forall ((e BoundSet)) (forall ((f BoundSet)) (=> (IsFlat e) (IsThoughtToBeFlat f))))) (exists ((a BoundSet)) (IsFlat a)))))
(check-sat)
(get-model)